(set-logic UFDT)
(declare-datatypes ((nat 0)) (((zero) (s (s0 nat)))))
(declare-fun add (nat nat) nat)
(injective add (true true))
(declare-fun leq (nat nat) Bool)
(assert (forall ((y nat)) (= (add zero y) y)))
(assert (forall ((x nat) (y nat)) (= (add (s x) y) (s (add x y)))))
(assert (forall ((y nat)) (leq zero y)))
(assert (forall ((x nat)) (not (leq (s x) zero))))
(assert (forall ((x nat) (y nat)) (= (leq (s x) (s y)) (leq x y))))
(assert (not (forall ((v0 nat) (v1 nat) (v2 nat) (v3 nat) (v4 nat) (v5 nat) (v6 nat)) (= (add (s (add (s v4) (add v3 (s v0)))) (s (s (s (add (add (add (s v5) (s v5)) (s v6)) (add v2 (s v1))))))) (s (add (add (add (add v5 v5) (s (s (s (s v2))))) (s v3)) (s (add (add (s v6) v1) (s (add (s v0) v4))))))))))
(check-sat)
